(set-info :smt-lib-version 2.6)
(set-logic QF_S)
(set-info :source |
Generated by: Hung-En Wang, Tzung-Lin Tsai, Chun-Han Lin, Fang Yu, and Jie-Hong R. Jiang
Generated on: 2019-02-28
Generator: Stranger
Application: Security analysis of string manipulating web applications
Target solver: CVC4, Norn, Z3-str2
Publication:
Hung-En Wang, Tzung-Lin Tsai, Chun-Han Lin, Fang Yu, Jie-Hong R. Jiang:
String Analysis via Automata Manipulation with Logic Circuit Representation. CAV (1) 2016: 241-260.
|)
(set-info :license "https://creativecommons.org/licenses/by/4.0/")
(set-info :category "industrial")
(set-info :status unknown)

(declare-fun sigmaStar_0 () String)
(declare-fun sigmaStar_1 () String)
(declare-fun sigmaStar_2 () String)
(declare-fun literal_4 () String)
(declare-fun x_5 () String)
(declare-fun epsilon () String)
(declare-fun x_7 () String)
(declare-fun literal_8 () String)
(declare-fun x_9 () String)
(declare-fun literal_11 () String)
(declare-fun x_12 () String)
(declare-fun literal_14 () String)
(declare-fun x_15 () String)
(declare-fun literal_17 () String)
(declare-fun x_18 () String)
(declare-fun sigmaStar_21 () String)
(declare-fun literal_20 () String)
(declare-fun x_22 () String)
(declare-fun x_24 () String)
(declare-fun sigmaStar_27 () String)
(declare-fun literal_26 () String)
(declare-fun x_28 () String)
(declare-fun x_31 () String)
(declare-fun sigmaStar_34 () String)
(declare-fun literal_33 () String)
(declare-fun x_35 () String)
(declare-fun x_38 () String)
(declare-fun literal_37 () String)
(declare-fun x_41 () String)
(declare-fun sigmaStar_42 () String)
(declare-fun literal_40 () String)
(declare-fun x_43 () String)
(declare-fun literal_44 () String)
(declare-fun x_53 () String)
(declare-fun x_54 () String)
(declare-fun x_62 () String)
(declare-fun literal_51 () String)
(declare-fun literal_52 () String)
(declare-fun literal_50 () String)
(declare-fun literal_48 () String)
(declare-fun literal_49 () String)
(declare-fun literal_45 () String)
(declare-fun literal_46 () String)
(declare-fun literal_47 () String)
(declare-fun x_65 () String)
(declare-fun sigmaStar_66 () String)
(declare-fun literal_64 () String)
(declare-fun x_67 () String)
(declare-fun literal_68 () String)
(declare-fun x_69 () String)
(declare-fun x_70 () String)
(declare-fun x_71 () String)
(assert (= literal_4 "\u{3c}\u{74}\u{61}\u{62}\u{6c}\u{65}\u{20}\u{77}\u{69}\u{64}\u{74}\u{68}\u{3d}\u{27}\u{31}\u{30}\u{30}\u{25}\u{27}\u{20}\u{62}\u{6f}\u{72}\u{64}\u{65}\u{72}\u{3d}\u{30}\u{20}\u{63}\u{65}\u{6c}\u{6c}\u{70}\u{61}\u{64}\u{64}\u{69}\u{6e}\u{67}\u{3d}\u{31}\u{30}\u{20}\u{63}\u{65}\u{6c}\u{6c}\u{73}\u{70}\u{61}\u{63}\u{69}\u{6e}\u{67}\u{3d}\u{30}\u{3e}\u{0d}\u{0a}\u{3c}\u{74}\u{72}\u{3e}\u{0d}\u{0a}\u{3c}\u{74}\u{64}\u{3e}\u{0d}\u{0a}\u{0d}\u{0a}\u{20}\u{3c}\u{68}\u{31}\u{3e}\u{4d}\u{61}\u{6e}\u{61}\u{67}\u{65}\u{20}\u{53}\u{63}\u{68}\u{6f}\u{6f}\u{6c}\u{20}\u{49}\u{6e}\u{66}\u{6f}\u{72}\u{6d}\u{61}\u{74}\u{69}\u{6f}\u{6e}\u{3c}\u{2f}\u{68}\u{31}\u{3e}\u{0d}\u{0a}\u{20}\u{3c}\u{62}\u{72}\u{3e}\u{0d}\u{0a}\u{0d}\u{0a}\u{20}\u{3c}\u{66}\u{6f}\u{72}\u{6d}\u{20}\u{6e}\u{61}\u{6d}\u{65}\u{3d}\u{27}\u{69}\u{6e}\u{66}\u{6f}\u{27}\u{20}\u{6d}\u{65}\u{74}\u{68}\u{6f}\u{64}\u{3d}\u{27}\u{50}\u{4f}\u{53}\u{54}\u{27}\u{20}\u{61}\u{63}\u{74}\u{69}\u{6f}\u{6e}\u{3d}\u{27}\u{2e}\u{2f}\u{69}\u{6e}\u{64}\u{65}\u{78}\u{2e}\u{70}\u{68}\u{70}\u{27}\u{3e}\u{0d}\u{0a}\u{0d}\u{0a}\u{20}\u{3c}\u{74}\u{61}\u{62}\u{6c}\u{65}\u{20}\u{62}\u{6f}\u{72}\u{64}\u{65}\u{72}\u{3d}\u{30}\u{20}\u{77}\u{69}\u{64}\u{74}\u{68}\u{3d}\u{35}\u{30}\u{30}\u{20}\u{63}\u{65}\u{6c}\u{6c}\u{73}\u{70}\u{61}\u{63}\u{69}\u{6e}\u{67}\u{3d}\u{30}\u{20}\u{63}\u{65}\u{6c}\u{6c}\u{70}\u{61}\u{64}\u{64}\u{69}\u{6e}\u{67}\u{3d}\u{27}\u{33}\u{27}\u{20}\u{61}\u{6c}\u{69}\u{67}\u{6e}\u{3d}\u{27}\u{63}\u{65}\u{6e}\u{74}\u{65}\u{72}\u{27}\u{20}\u{63}\u{65}\u{6c}\u{6c}\u{70}\u{61}\u{64}\u{64}\u{69}\u{6e}\u{67}\u{3d}\u{30}\u{20}\u{63}\u{6c}\u{61}\u{73}\u{73}\u{3d}\u{27}\u{64}\u{79}\u{6e}\u{61}\u{6d}\u{69}\u{63}\u{6c}\u{69}\u{73}\u{74}\u{27}\u{3e}\u{0d}\u{0a}\u{20}\u{3c}\u{74}\u{72}\u{20}\u{63}\u{6c}\u{61}\u{73}\u{73}\u{3d}\u{27}\u{65}\u{76}\u{65}\u{6e}\u{27}\u{3e}\u{0d}\u{0a}\u{20}\u{20}\u{3c}\u{74}\u{64}\u{20}\u{61}\u{6c}\u{69}\u{67}\u{6e}\u{3d}\u{27}\u{72}\u{69}\u{67}\u{68}\u{74}\u{27}\u{3e}\u{0d}\u{0a}\u{20}\u{20}\u{20}\u{53}\u{63}\u{68}\u{6f}\u{6f}\u{6c}\u{20}\u{4e}\u{61}\u{6d}\u{65}\u{3a}\u{0d}\u{0a}\u{20}\u{20}\u{3c}\u{2f}\u{74}\u{64}\u{3e}\u{0d}\u{0a}\u{20}\u{20}\u{3c}\u{74}\u{64}\u{20}\u{61}\u{6c}\u{69}\u{67}\u{6e}\u{3d}\u{27}\u{6c}\u{65}\u{66}\u{74}\u{27}\u{3e}\u{0d}\u{0a}\u{20}\u{20}\u{20}\u{3c}\u{69}\u{6e}\u{70}\u{75}\u{74}\u{20}\u{74}\u{79}\u{70}\u{65}\u{3d}\u{27}\u{74}\u{65}\u{78}\u{74}\u{27}\u{20}\u{76}\u{61}\u{6c}\u{75}\u{65}\u{3d}\u{27}"))
(assert (= epsilon ""))
(assert (= x_5 epsilon))
(assert (= x_7 (str.++ literal_4 x_5)))
(assert (= literal_8 "\u{20}\u{6d}\u{61}\u{78}\u{6c}\u{65}\u{6e}\u{67}\u{74}\u{68}\u{3d}\u{35}\u{30}\u{27}\u{20}\u{6e}\u{61}\u{6d}\u{65}\u{3d}\u{27}\u{73}\u{63}\u{68}\u{6f}\u{6f}\u{6c}\u{6e}\u{61}\u{6d}\u{65}\u{27}\u{20}\u{73}\u{69}\u{7a}\u{65}\u{3d}\u{34}\u{30}\u{3e}\u{0d}\u{0a}\u{20}\u{20}\u{3c}\u{2f}\u{74}\u{64}\u{3e}\u{0d}\u{0a}\u{20}\u{3c}\u{2f}\u{74}\u{72}\u{3e}\u{0d}\u{0a}\u{20}\u{3c}\u{74}\u{72}\u{20}\u{63}\u{6c}\u{61}\u{73}\u{73}\u{3d}\u{27}\u{65}\u{76}\u{65}\u{6e}\u{27}\u{3e}\u{0d}\u{0a}\u{20}\u{20}\u{3c}\u{74}\u{64}\u{20}\u{61}\u{6c}\u{69}\u{67}\u{6e}\u{3d}\u{27}\u{72}\u{69}\u{67}\u{68}\u{74}\u{27}\u{3e}\u{0d}\u{0a}\u{20}\u{20}\u{20}\u{41}\u{64}\u{64}\u{72}\u{65}\u{73}\u{73}\u{3a}\u{0d}\u{0a}\u{20}\u{20}\u{3c}\u{2f}\u{74}\u{64}\u{3e}\u{0d}\u{0a}\u{20}\u{20}\u{3c}\u{74}\u{64}\u{20}\u{61}\u{6c}\u{69}\u{67}\u{6e}\u{3d}\u{27}\u{6c}\u{65}\u{66}\u{74}\u{27}\u{3e}\u{0d}\u{0a}\u{20}\u{20}\u{20}\u{3c}\u{69}\u{6e}\u{70}\u{75}\u{74}\u{20}\u{74}\u{79}\u{70}\u{65}\u{3d}\u{27}\u{74}\u{65}\u{78}\u{74}\u{27}\u{20}\u{76}\u{61}\u{6c}\u{75}\u{65}\u{3d}\u{27}"))
(assert (= x_9 (str.++ x_7 literal_8)))
(assert (= literal_11 "\u{20}\u{6e}\u{61}\u{6d}\u{65}\u{3d}\u{73}\u{63}\u{68}\u{6f}\u{6f}\u{6c}\u{61}\u{64}\u{64}\u{72}\u{65}\u{73}\u{73}\u{27}\u{20}\u{6d}\u{61}\u{78}\u{6c}\u{65}\u{6e}\u{67}\u{74}\u{68}\u{3d}\u{27}\u{35}\u{30}\u{27}\u{20}\u{73}\u{69}\u{7a}\u{65}\u{3d}\u{34}\u{30}\u{3e}\u{0d}\u{0a}\u{20}\u{20}\u{3c}\u{2f}\u{74}\u{64}\u{3e}\u{0d}\u{0a}\u{20}\u{3c}\u{2f}\u{74}\u{72}\u{3e}\u{0d}\u{0a}\u{20}\u{3c}\u{74}\u{72}\u{20}\u{63}\u{6c}\u{61}\u{73}\u{73}\u{3d}\u{27}\u{65}\u{76}\u{65}\u{6e}\u{27}\u{3e}\u{0d}\u{0a}\u{20}\u{20}\u{3c}\u{74}\u{64}\u{20}\u{61}\u{6c}\u{69}\u{67}\u{6e}\u{3d}\u{27}\u{72}\u{69}\u{67}\u{68}\u{74}\u{27}\u{3e}\u{0d}\u{0a}\u{20}\u{20}\u{20}\u{50}\u{68}\u{6f}\u{6e}\u{65}\u{20}\u{23}\u{3a}\u{0d}\u{0a}\u{20}\u{20}\u{3c}\u{2f}\u{74}\u{64}\u{3e}\u{0d}\u{0a}\u{20}\u{20}\u{3c}\u{74}\u{64}\u{20}\u{61}\u{6c}\u{69}\u{67}\u{6e}\u{3d}\u{27}\u{6c}\u{65}\u{66}\u{74}\u{27}\u{3e}\u{0d}\u{0a}\u{20}\u{20}\u{20}\u{3c}\u{69}\u{6e}\u{70}\u{75}\u{74}\u{20}\u{74}\u{79}\u{70}\u{65}\u{3d}\u{27}\u{74}\u{65}\u{78}\u{74}\u{27}\u{20}\u{76}\u{61}\u{6c}\u{75}\u{65}\u{3d}\u{27}"))
(assert (= x_12 (str.++ x_9 literal_11)))
(assert (= literal_14 "\u{20}\u{6e}\u{61}\u{6d}\u{65}\u{3d}\u{73}\u{63}\u{68}\u{6f}\u{6f}\u{6c}\u{70}\u{68}\u{6f}\u{6e}\u{65}\u{27}\u{20}\u{6d}\u{61}\u{78}\u{6c}\u{65}\u{6e}\u{67}\u{74}\u{68}\u{3d}\u{27}\u{31}\u{34}\u{27}\u{3e}\u{0d}\u{0a}\u{20}\u{20}\u{3c}\u{2f}\u{74}\u{64}\u{3e}\u{0d}\u{0a}\u{20}\u{3c}\u{2f}\u{74}\u{72}\u{3e}\u{0d}\u{0a}\u{20}\u{3c}\u{74}\u{72}\u{20}\u{63}\u{6c}\u{61}\u{73}\u{73}\u{3d}\u{27}\u{65}\u{76}\u{65}\u{6e}\u{27}\u{3e}\u{0d}\u{0a}\u{20}\u{20}\u{3c}\u{74}\u{64}\u{20}\u{61}\u{6c}\u{69}\u{67}\u{6e}\u{3d}\u{27}\u{72}\u{69}\u{67}\u{68}\u{74}\u{27}\u{3e}\u{0d}\u{0a}\u{20}\u{20}\u{20}\u{53}\u{65}\u{6d}\u{65}\u{73}\u{74}\u{65}\u{72}\u{73}\u{20}\u{50}\u{65}\u{72}\u{20}\u{59}\u{65}\u{61}\u{72}\u{3a}\u{0d}\u{0a}\u{20}\u{20}\u{3c}\u{2f}\u{74}\u{64}\u{3e}\u{0d}\u{0a}\u{20}\u{20}\u{3c}\u{74}\u{64}\u{20}\u{61}\u{6c}\u{69}\u{67}\u{6e}\u{3d}\u{27}\u{6c}\u{65}\u{66}\u{74}\u{27}\u{3e}\u{0d}\u{0a}\u{20}\u{20}\u{20}\u{3c}\u{69}\u{6e}\u{70}\u{75}\u{74}\u{20}\u{74}\u{79}\u{70}\u{65}\u{3d}\u{27}\u{74}\u{65}\u{78}\u{74}\u{27}\u{20}\u{76}\u{61}\u{6c}\u{75}\u{65}\u{3d}\u{27}"))
(assert (= x_15 (str.++ x_12 literal_14)))
(assert (= literal_17 "\u{20}\u{6e}\u{61}\u{6d}\u{65}\u{3d}\u{6e}\u{75}\u{6d}\u{73}\u{65}\u{6d}\u{65}\u{73}\u{74}\u{65}\u{72}\u{73}\u{27}\u{20}\u{6d}\u{61}\u{78}\u{6c}\u{65}\u{6e}\u{67}\u{74}\u{68}\u{3d}\u{27}\u{33}\u{27}\u{20}\u{73}\u{69}\u{7a}\u{65}\u{3d}\u{33}\u{3e}\u{0d}\u{0a}\u{20}\u{20}\u{3c}\u{2f}\u{74}\u{64}\u{3e}\u{0d}\u{0a}\u{20}\u{3c}\u{2f}\u{74}\u{72}\u{3e}\u{0d}\u{0a}\u{20}\u{3c}\u{74}\u{72}\u{20}\u{63}\u{6c}\u{61}\u{73}\u{73}\u{3d}\u{27}\u{65}\u{76}\u{65}\u{6e}\u{27}\u{3e}\u{0d}\u{0a}\u{20}\u{20}\u{3c}\u{74}\u{64}\u{20}\u{61}\u{6c}\u{69}\u{67}\u{6e}\u{3d}\u{27}\u{72}\u{69}\u{67}\u{68}\u{74}\u{27}\u{3e}\u{0d}\u{0a}\u{20}\u{20}\u{20}\u{50}\u{65}\u{72}\u{69}\u{6f}\u{64}\u{73}\u{20}\u{50}\u{65}\u{72}\u{20}\u{44}\u{61}\u{79}\u{3a}\u{0d}\u{0a}\u{20}\u{20}\u{3c}\u{2f}\u{74}\u{64}\u{3e}\u{0d}\u{0a}\u{20}\u{20}\u{3c}\u{74}\u{64}\u{20}\u{61}\u{6c}\u{69}\u{67}\u{6e}\u{3d}\u{27}\u{6c}\u{65}\u{66}\u{74}\u{27}\u{3e}\u{0d}\u{0a}\u{20}\u{20}\u{20}\u{3c}\u{69}\u{6e}\u{70}\u{75}\u{74}\u{20}\u{74}\u{79}\u{70}\u{65}\u{3d}\u{27}\u{74}\u{65}\u{78}\u{74}\u{27}\u{20}\u{76}\u{61}\u{6c}\u{75}\u{65}\u{3d}\u{27}"))
(assert (= x_18 (str.++ x_15 literal_17)))
(assert (= literal_20 "\u{20}\u{6e}\u{61}\u{6d}\u{65}\u{3d}\u{6e}\u{75}\u{6d}\u{70}\u{65}\u{72}\u{69}\u{6f}\u{64}\u{73}\u{27}\u{20}\u{6d}\u{61}\u{78}\u{6c}\u{65}\u{6e}\u{67}\u{74}\u{68}\u{3d}\u{27}\u{33}\u{27}\u{20}\u{73}\u{69}\u{7a}\u{65}\u{3d}\u{33}\u{3e}\u{0d}\u{0a}\u{20}\u{20}\u{3c}\u{2f}\u{74}\u{64}\u{3e}\u{0d}\u{0a}\u{20}\u{3c}\u{2f}\u{74}\u{72}\u{3e}\u{0d}\u{0a}\u{20}\u{3c}\u{74}\u{72}\u{20}\u{63}\u{6c}\u{61}\u{73}\u{73}\u{3d}\u{27}\u{65}\u{76}\u{65}\u{6e}\u{27}\u{3e}\u{0d}\u{0a}\u{20}\u{20}\u{3c}\u{74}\u{64}\u{20}\u{61}\u{6c}\u{69}\u{67}\u{6e}\u{3d}\u{27}\u{72}\u{69}\u{67}\u{68}\u{74}\u{27}\u{3e}\u{0d}\u{0a}\u{20}\u{20}\u{20}\u{50}\u{6f}\u{69}\u{6e}\u{74}\u{73}\u{20}\u{66}\u{6f}\u{72}\u{20}\u{41}\u{3a}\u{0d}\u{0a}\u{20}\u{20}\u{3c}\u{2f}\u{74}\u{64}\u{3e}\u{0d}\u{0a}\u{20}\u{20}\u{3c}\u{74}\u{64}\u{20}\u{61}\u{6c}\u{69}\u{67}\u{6e}\u{3d}\u{27}\u{6c}\u{65}\u{66}\u{74}\u{27}\u{3e}\u{0d}\u{0a}\u{20}\u{20}\u{20}\u{3c}\u{69}\u{6e}\u{70}\u{75}\u{74}\u{20}\u{74}\u{79}\u{70}\u{65}\u{3d}\u{27}\u{74}\u{65}\u{78}\u{74}\u{27}\u{20}\u{76}\u{61}\u{6c}\u{75}\u{65}\u{3d}\u{27}"))
(assert (= x_22 (str.++ x_18 literal_20)))
(assert (= x_24 (str.++ x_22 sigmaStar_21)))
(assert (= literal_26 "\u{27}\u{20}\u{6e}\u{61}\u{6d}\u{65}\u{3d}\u{27}\u{61}\u{70}\u{6f}\u{69}\u{6e}\u{74}\u{27}\u{20}\u{6d}\u{61}\u{78}\u{6c}\u{65}\u{6e}\u{67}\u{74}\u{68}\u{3d}\u{27}\u{33}\u{27}\u{20}\u{73}\u{69}\u{7a}\u{65}\u{3d}\u{33}\u{3e}\u{0d}\u{0a}\u{20}\u{20}\u{3c}\u{2f}\u{74}\u{64}\u{3e}\u{0d}\u{0a}\u{20}\u{3c}\u{2f}\u{74}\u{72}\u{3e}\u{0d}\u{0a}\u{20}\u{3c}\u{74}\u{72}\u{20}\u{63}\u{6c}\u{61}\u{73}\u{73}\u{3d}\u{27}\u{65}\u{76}\u{65}\u{6e}\u{27}\u{3e}\u{0d}\u{0a}\u{20}\u{20}\u{3c}\u{74}\u{64}\u{20}\u{61}\u{6c}\u{69}\u{67}\u{6e}\u{3d}\u{27}\u{72}\u{69}\u{67}\u{68}\u{74}\u{27}\u{3e}\u{0d}\u{0a}\u{20}\u{20}\u{20}\u{50}\u{6f}\u{69}\u{6e}\u{74}\u{73}\u{20}\u{66}\u{6f}\u{72}\u{20}\u{42}\u{3a}\u{0d}\u{0a}\u{20}\u{20}\u{3c}\u{2f}\u{74}\u{64}\u{3e}\u{0d}\u{0a}\u{20}\u{20}\u{3c}\u{74}\u{64}\u{20}\u{61}\u{6c}\u{69}\u{67}\u{6e}\u{3d}\u{27}\u{6c}\u{65}\u{66}\u{74}\u{27}\u{3e}\u{0d}\u{0a}\u{20}\u{20}\u{20}\u{3c}\u{69}\u{6e}\u{70}\u{75}\u{74}\u{20}\u{74}\u{79}\u{70}\u{65}\u{3d}\u{27}\u{74}\u{65}\u{78}\u{74}\u{27}\u{20}\u{76}\u{61}\u{6c}\u{75}\u{65}\u{3d}\u{27}"))
(assert (= x_28 (str.++ x_24 literal_26)))
(assert (= x_31 (str.++ x_28 sigmaStar_27)))
(assert (= literal_33 "\u{27}\u{20}\u{6e}\u{61}\u{6d}\u{65}\u{3d}\u{27}\u{62}\u{70}\u{6f}\u{69}\u{6e}\u{74}\u{27}\u{20}\u{6d}\u{61}\u{78}\u{6c}\u{65}\u{6e}\u{67}\u{74}\u{68}\u{3d}\u{27}\u{33}\u{27}\u{20}\u{73}\u{69}\u{7a}\u{65}\u{3d}\u{33}\u{3e}\u{0d}\u{0a}\u{20}\u{20}\u{3c}\u{2f}\u{74}\u{64}\u{3e}\u{0d}\u{0a}\u{20}\u{3c}\u{2f}\u{74}\u{72}\u{3e}\u{0d}\u{0a}\u{20}\u{3c}\u{74}\u{72}\u{20}\u{63}\u{6c}\u{61}\u{73}\u{73}\u{3d}\u{27}\u{65}\u{76}\u{65}\u{6e}\u{27}\u{3e}\u{0d}\u{0a}\u{20}\u{20}\u{3c}\u{74}\u{64}\u{20}\u{61}\u{6c}\u{69}\u{67}\u{6e}\u{3d}\u{27}\u{72}\u{69}\u{67}\u{68}\u{74}\u{27}\u{3e}\u{0d}\u{0a}\u{20}\u{20}\u{20}\u{50}\u{6f}\u{69}\u{6e}\u{74}\u{73}\u{20}\u{66}\u{6f}\u{72}\u{20}\u{43}\u{3a}\u{0d}\u{0a}\u{20}\u{20}\u{3c}\u{2f}\u{74}\u{64}\u{3e}\u{0d}\u{0a}\u{20}\u{20}\u{3c}\u{74}\u{64}\u{20}\u{61}\u{6c}\u{69}\u{67}\u{6e}\u{3d}\u{27}\u{6c}\u{65}\u{66}\u{74}\u{27}\u{3e}\u{0d}\u{0a}\u{20}\u{20}\u{20}\u{3c}\u{69}\u{6e}\u{70}\u{75}\u{74}\u{20}\u{74}\u{79}\u{70}\u{65}\u{3d}\u{27}\u{74}\u{65}\u{78}\u{74}\u{27}\u{20}\u{76}\u{61}\u{6c}\u{75}\u{65}\u{3d}\u{27}"))
(assert (= x_35 (str.++ x_31 literal_33)))
(assert (= x_38 (str.++ x_35 sigmaStar_34)))
(assert (= literal_37 "\u{20}\u{6e}\u{61}\u{6d}\u{65}\u{3d}\u{66}\u{70}\u{6f}\u{69}\u{6e}\u{74}\u{27}\u{20}\u{6d}\u{61}\u{78}\u{6c}\u{65}\u{6e}\u{67}\u{74}\u{68}\u{3d}\u{27}\u{33}\u{27}\u{20}\u{73}\u{69}\u{7a}\u{65}\u{3d}\u{33}\u{3e}\u{0d}\u{0a}\u{20}\u{20}\u{3c}\u{2f}\u{74}\u{64}\u{3e}\u{0d}\u{0a}\u{20}\u{3c}\u{2f}\u{74}\u{72}\u{3e}\u{0d}\u{0a}\u{20}\u{3c}\u{74}\u{72}\u{20}\u{63}\u{6c}\u{61}\u{73}\u{73}\u{3d}\u{27}\u{65}\u{76}\u{65}\u{6e}\u{27}\u{3e}\u{0d}\u{0a}\u{20}\u{20}\u{3c}\u{74}\u{64}\u{20}\u{61}\u{6c}\u{69}\u{67}\u{6e}\u{3d}\u{27}\u{72}\u{69}\u{67}\u{68}\u{74}\u{27}\u{20}\u{76}\u{61}\u{6c}\u{69}\u{67}\u{6e}\u{3d}\u{27}\u{74}\u{6f}\u{70}\u{27}\u{3e}\u{0d}\u{0a}\u{20}\u{20}\u{20}\u{54}\u{65}\u{78}\u{74}\u{20}\u{46}\u{6f}\u{72}\u{20}\u{4c}\u{6f}\u{67}\u{69}\u{6e}\u{20}\u{50}\u{61}\u{67}\u{65}\u{3a}\u{0d}\u{0a}\u{20}\u{20}\u{3c}\u{2f}\u{74}\u{64}\u{3e}\u{0d}\u{0a}\u{20}\u{20}\u{3c}\u{74}\u{64}\u{20}\u{61}\u{6c}\u{69}\u{67}\u{6e}\u{3d}\u{27}\u{6c}\u{65}\u{66}\u{74}\u{27}\u{3e}\u{0d}\u{0a}\u{20}\u{20}\u{20}\u{3c}\u{74}\u{65}\u{78}\u{74}\u{61}\u{72}\u{65}\u{61}\u{20}\u{6e}\u{61}\u{6d}\u{65}\u{3d}\u{27}\u{73}\u{69}\u{74}\u{65}\u{74}\u{65}\u{78}\u{74}\u{27}\u{20}\u{63}\u{6f}\u{6c}\u{73}\u{3d}\u{34}\u{30}\u{20}\u{72}\u{6f}\u{77}\u{73}\u{3d}\u{31}\u{30}\u{3e}\u{3c}\u{2f}\u{74}\u{65}\u{78}\u{74}\u{61}\u{72}\u{65}\u{61}\u{3e}\u{0d}\u{0a}\u{20}\u{20}\u{3c}\u{2f}\u{74}\u{64}\u{3e}\u{0d}\u{0a}\u{20}\u{3c}\u{2f}\u{74}\u{72}\u{3e}\u{0d}\u{0a}\u{20}\u{3c}\u{74}\u{72}\u{20}\u{63}\u{6c}\u{61}\u{73}\u{73}\u{3d}\u{27}\u{65}\u{76}\u{65}\u{6e}\u{27}\u{3e}\u{0d}\u{0a}\u{20}\u{20}\u{3c}\u{74}\u{64}\u{20}\u{61}\u{6c}\u{69}\u{67}\u{6e}\u{3d}\u{27}\u{72}\u{69}\u{67}\u{68}\u{74}\u{27}\u{20}\u{76}\u{61}\u{6c}\u{69}\u{67}\u{6e}\u{3d}\u{27}\u{74}\u{6f}\u{70}\u{27}\u{3e}\u{54}\u{6f}\u{64}\u{61}\u{79}\u{27}\u{73}\u{20}\u{4d}\u{65}\u{73}\u{73}\u{61}\u{67}\u{65}\u{3a}\u{3c}\u{2f}\u{74}\u{64}\u{3e}\u{0d}\u{0a}\u{20}\u{20}\u{3c}\u{74}\u{64}\u{20}\u{61}\u{6c}\u{69}\u{67}\u{6e}\u{3d}\u{27}\u{6c}\u{65}\u{66}\u{74}\u{27}\u{3e}\u{0d}\u{0a}\u{20}\u{20}\u{20}\u{3c}\u{74}\u{65}\u{78}\u{74}\u{61}\u{72}\u{65}\u{61}\u{20}\u{6e}\u{61}\u{6d}\u{65}\u{3d}\u{27}\u{73}\u{69}\u{74}\u{65}\u{6d}\u{65}\u{73}\u{73}\u{61}\u{67}\u{65}\u{27}\u{20}\u{63}\u{6f}\u{6c}\u{73}\u{3d}\u{34}\u{30}\u{20}\u{72}\u{6f}\u{77}\u{73}\u{3d}\u{31}\u{30}\u{3e}\u{3c}\u{2f}\u{74}\u{65}\u{78}\u{74}\u{61}\u{72}\u{65}\u{61}\u{3e}\u{0d}\u{0a}\u{20}\u{20}\u{3c}\u{2f}\u{74}\u{64}\u{3e}\u{0d}\u{0a}\u{20}\u{20}\u{3c}\u{2f}\u{74}\u{72}\u{3e}\u{0d}\u{0a}\u{20}\u{3c}\u{2f}\u{74}\u{61}\u{62}\u{6c}\u{65}\u{3e}\u{0d}\u{0a}\u{3c}\u{62}\u{72}\u{3e}\u{0d}\u{0a}\u{20}\u{3c}\u{74}\u{61}\u{62}\u{6c}\u{65}\u{20}\u{77}\u{69}\u{64}\u{74}\u{68}\u{3d}\u{27}\u{35}\u{30}\u{30}\u{27}\u{20}\u{61}\u{6c}\u{69}\u{67}\u{6e}\u{3d}\u{27}\u{63}\u{65}\u{6e}\u{74}\u{65}\u{72}\u{27}\u{20}\u{63}\u{65}\u{6c}\u{6c}\u{70}\u{61}\u{64}\u{64}\u{69}\u{6e}\u{67}\u{3d}\u{27}\u{30}\u{27}\u{20}\u{63}\u{65}\u{6c}\u{6c}\u{73}\u{70}\u{61}\u{63}\u{69}\u{6e}\u{67}\u{3d}\u{27}\u{30}\u{27}\u{20}\u{62}\u{6f}\u{72}\u{64}\u{65}\u{72}\u{3d}\u{27}\u{30}\u{27}\u{3e}\u{0d}\u{0a}\u{20}\u{20}\u{3c}\u{74}\u{72}\u{3e}\u{0d}\u{0a}\u{20}\u{20}\u{20}\u{3c}\u{74}\u{64}\u{20}\u{61}\u{6c}\u{69}\u{67}\u{6e}\u{3d}\u{27}\u{63}\u{65}\u{6e}\u{74}\u{65}\u{72}\u{27}\u{3e}\u{3c}\u{69}\u{6e}\u{70}\u{75}\u{74}\u{20}\u{74}\u{79}\u{70}\u{65}\u{3d}\u{27}\u{62}\u{75}\u{74}\u{74}\u{6f}\u{6e}\u{27}\u{20}\u{76}\u{61}\u{6c}\u{75}\u{65}\u{3d}\u{27}\u{20}\u{55}\u{70}\u{64}\u{61}\u{74}\u{65}\u{20}\u{27}\u{20}\u{6f}\u{6e}\u{43}\u{6c}\u{69}\u{63}\u{6b}\u{3d}\u{27}\u{64}\u{6f}\u{63}\u{75}\u{6d}\u{65}\u{6e}\u{74}\u{2e}\u{69}\u{6e}\u{66}\u{6f}\u{2e}\u{69}\u{6e}\u{66}\u{6f}\u{75}\u{70}\u{64}\u{61}\u{74}\u{65}\u{2e}\u{76}\u{61}\u{6c}\u{75}\u{65}\u{3d}\u{31}\u{3b}\u{64}\u{6f}\u{63}\u{75}\u{6d}\u{65}\u{6e}\u{74}\u{2e}\u{69}\u{6e}\u{66}\u{6f}\u{2e}\u{73}\u{75}\u{62}\u{6d}\u{69}\u{74}\u{28}\u{29}\u{3b}\u{27}\u{3e}\u{3c}\u{2f}\u{74}\u{64}\u{3e}\u{0d}\u{0a}\u{20}\u{20}\u{3c}\u{2f}\u{74}\u{72}\u{3e}\u{0d}\u{0a}\u{20}\u{3c}\u{2f}\u{74}\u{61}\u{62}\u{6c}\u{65}\u{3e}\u{0d}\u{0a}\u{0d}\u{0a}\u{20}\u{3c}\u{69}\u{6e}\u{70}\u{75}\u{74}\u{20}\u{74}\u{79}\u{70}\u{65}\u{3d}\u{27}\u{68}\u{69}\u{64}\u{64}\u{65}\u{6e}\u{27}\u{20}\u{6e}\u{61}\u{6d}\u{65}\u{3d}\u{27}\u{69}\u{6e}\u{66}\u{6f}\u{75}\u{70}\u{64}\u{61}\u{74}\u{65}\u{27}\u{20}\u{76}\u{61}\u{6c}\u{75}\u{65}\u{3d}\u{27}\u{27}\u{3e}\u{0d}\u{0a}\u{20}\u{3c}\u{69}\u{6e}\u{70}\u{75}\u{74}\u{20}\u{74}\u{79}\u{70}\u{65}\u{3d}\u{27}\u{68}\u{69}\u{64}\u{64}\u{65}\u{6e}\u{27}\u{20}\u{6e}\u{61}\u{6d}\u{65}\u{3d}\u{27}\u{70}\u{61}\u{67}\u{65}\u{32}\u{27}\u{20}\u{76}\u{61}\u{6c}\u{75}\u{65}\u{3d}\u{27}"))
(assert (= x_41 (str.++ literal_37 sigmaStar_2)))
(assert (= literal_40 "\u{27}\u{20}\u{6e}\u{61}\u{6d}\u{65}\u{3d}\u{27}\u{63}\u{70}\u{6f}\u{69}\u{6e}\u{74}\u{27}\u{20}\u{6d}\u{61}\u{78}\u{6c}\u{65}\u{6e}\u{67}\u{74}\u{68}\u{3d}\u{27}\u{33}\u{27}\u{20}\u{73}\u{69}\u{7a}\u{65}\u{3d}\u{33}\u{3e}\u{0d}\u{0a}\u{20}\u{20}\u{3c}\u{2f}\u{74}\u{64}\u{3e}\u{0d}\u{0a}\u{20}\u{3c}\u{2f}\u{74}\u{72}\u{3e}\u{0d}\u{0a}\u{20}\u{3c}\u{74}\u{72}\u{20}\u{63}\u{6c}\u{61}\u{73}\u{73}\u{3d}\u{27}\u{65}\u{76}\u{65}\u{6e}\u{27}\u{3e}\u{0d}\u{0a}\u{20}\u{20}\u{3c}\u{74}\u{64}\u{20}\u{61}\u{6c}\u{69}\u{67}\u{6e}\u{3d}\u{27}\u{72}\u{69}\u{67}\u{68}\u{74}\u{27}\u{3e}\u{0d}\u{0a}\u{20}\u{20}\u{20}\u{50}\u{6f}\u{69}\u{6e}\u{74}\u{73}\u{20}\u{66}\u{6f}\u{72}\u{20}\u{44}\u{3a}\u{0d}\u{0a}\u{20}\u{20}\u{3c}\u{2f}\u{74}\u{64}\u{3e}\u{0d}\u{0a}\u{20}\u{20}\u{3c}\u{74}\u{64}\u{20}\u{61}\u{6c}\u{69}\u{67}\u{6e}\u{3d}\u{27}\u{6c}\u{65}\u{66}\u{74}\u{27}\u{3e}\u{0d}\u{0a}\u{20}\u{20}\u{20}\u{3c}\u{69}\u{6e}\u{70}\u{75}\u{74}\u{20}\u{74}\u{79}\u{70}\u{65}\u{3d}\u{27}\u{74}\u{65}\u{78}\u{74}\u{27}\u{20}\u{76}\u{61}\u{6c}\u{75}\u{65}\u{3d}\u{27}"))
(assert (= x_43 (str.++ x_38 literal_40)))
(assert (= literal_44 "\u{3e}\u{0d}\u{0a}\u{20}\u{3c}\u{69}\u{6e}\u{70}\u{75}\u{74}\u{20}\u{74}\u{79}\u{70}\u{65}\u{3d}\u{68}\u{69}\u{64}\u{64}\u{65}\u{6e}\u{27}\u{20}\u{6e}\u{61}\u{6d}\u{65}\u{3d}\u{27}\u{6c}\u{6f}\u{67}\u{6f}\u{75}\u{74}\u{27}\u{3e}\u{0d}\u{0a}\u{20}\u{3c}\u{69}\u{6e}\u{70}\u{75}\u{74}\u{20}\u{74}\u{79}\u{70}\u{65}\u{3d}\u{27}\u{68}\u{69}\u{64}\u{64}\u{65}\u{6e}\u{27}\u{20}\u{6e}\u{61}\u{6d}\u{65}\u{3d}\u{27}\u{70}\u{61}\u{67}\u{65}\u{27}\u{20}\u{76}\u{61}\u{6c}\u{75}\u{65}\u{3d}\u{27}"))
(assert (= x_53 (str.++ x_41 literal_44)))
(assert (= x_54 (str.++ x_43 sigmaStar_42)))
(assert (= literal_51 "\u{32}"))
(assert (= literal_52 "\u{30}"))
(assert (= literal_50 "\u{30}"))
(assert (= literal_48 "\u{35}"))
(assert (= literal_49 "\u{31}"))
(assert (= literal_45 "\u{32}"))
(assert (= literal_46 "\u{34}"))
(assert (= literal_47 "\u{30}"))
(assert (or (= x_62 literal_51) (= x_62 literal_52) (= x_62 literal_50) (= x_62 literal_48) (= x_62 literal_49) (= x_62 sigmaStar_1) (= x_62 literal_45) (= x_62 literal_46) (= x_62 literal_47)))
(assert (= x_65 (str.++ x_53 x_62)))
(assert (= literal_64 "\u{27}\u{20}\u{6e}\u{61}\u{6d}\u{65}\u{3d}\u{27}\u{64}\u{70}\u{6f}\u{69}\u{6e}\u{74}\u{27}\u{20}\u{6d}\u{61}\u{78}\u{6c}\u{65}\u{6e}\u{67}\u{74}\u{68}\u{3d}\u{27}\u{33}\u{27}\u{20}\u{73}\u{69}\u{7a}\u{65}\u{3d}\u{33}\u{3e}\u{0d}\u{0a}\u{20}\u{20}\u{3c}\u{2f}\u{74}\u{64}\u{3e}\u{0d}\u{0a}\u{20}\u{3c}\u{2f}\u{74}\u{72}\u{3e}\u{0d}\u{0a}\u{20}\u{3c}\u{74}\u{72}\u{20}\u{63}\u{6c}\u{61}\u{73}\u{73}\u{3d}\u{27}\u{65}\u{76}\u{65}\u{6e}\u{27}\u{3e}\u{0d}\u{0a}\u{20}\u{20}\u{3c}\u{74}\u{64}\u{20}\u{61}\u{6c}\u{69}\u{67}\u{6e}\u{3d}\u{27}\u{72}\u{69}\u{67}\u{68}\u{74}\u{27}\u{3e}\u{0d}\u{0a}\u{20}\u{20}\u{20}\u{50}\u{6f}\u{69}\u{6e}\u{74}\u{73}\u{20}\u{66}\u{6f}\u{72}\u{20}\u{46}\u{3a}\u{0d}\u{0a}\u{20}\u{20}\u{3c}\u{2f}\u{74}\u{64}\u{3e}\u{0d}\u{0a}\u{20}\u{20}\u{3c}\u{74}\u{64}\u{20}\u{61}\u{6c}\u{69}\u{67}\u{6e}\u{3d}\u{27}\u{6c}\u{65}\u{66}\u{74}\u{27}\u{3e}\u{0d}\u{0a}\u{20}\u{20}\u{20}\u{3c}\u{69}\u{6e}\u{70}\u{75}\u{74}\u{20}\u{74}\u{79}\u{70}\u{65}\u{3d}\u{27}\u{74}\u{65}\u{78}\u{74}\u{27}\u{20}\u{76}\u{61}\u{6c}\u{75}\u{65}\u{3d}\u{27}"))
(assert (= x_67 (str.++ x_54 literal_64)))
(assert (= literal_68 "\u{3e}\u{0d}\u{0a}\u{20}\u{3c}\u{2f}\u{66}\u{6f}\u{72}\u{6d}\u{3e}\u{0d}\u{0a}\u{0d}\u{0a}\u{20}\u{3c}\u{74}\u{61}\u{62}\u{6c}\u{65}\u{20}\u{77}\u{69}\u{64}\u{74}\u{68}\u{3d}\u{35}\u{32}\u{30}\u{27}\u{20}\u{62}\u{6f}\u{72}\u{64}\u{65}\u{72}\u{3d}\u{30}\u{20}\u{63}\u{65}\u{6c}\u{6c}\u{73}\u{70}\u{61}\u{63}\u{69}\u{6e}\u{67}\u{3d}\u{30}\u{20}\u{63}\u{65}\u{6c}\u{6c}\u{70}\u{61}\u{64}\u{64}\u{69}\u{6e}\u{67}\u{3d}\u{30}\u{20}\u{68}\u{65}\u{69}\u{67}\u{68}\u{74}\u{3d}\u{31}\u{3e}\u{0d}\u{0a}\u{20}\u{20}\u{3c}\u{74}\u{72}\u{3e}\u{0d}\u{0a}\u{20}\u{20}\u{20}\u{3c}\u{74}\u{64}\u{20}\u{76}\u{61}\u{6c}\u{69}\u{67}\u{6e}\u{3d}\u{27}\u{74}\u{6f}\u{70}\u{27}\u{3e}\u{0d}\u{0a}\u{20}\u{20}\u{20}\u{3c}\u{65}\u{6d}\u{70}\u{74}\u{79}\u{3e}\u{0d}\u{0a}\u{20}\u{20}\u{20}\u{3c}\u{2f}\u{74}\u{64}\u{3e}\u{0d}\u{0a}\u{20}\u{20}\u{3c}\u{2f}\u{74}\u{72}\u{3e}\u{0d}\u{0a}\u{20}\u{3c}\u{2f}\u{74}\u{61}\u{62}\u{6c}\u{65}\u{3e}\u{0d}\u{0a}\u{0d}\u{0a}\u{3c}\u{2f}\u{74}\u{64}\u{3e}\u{0d}\u{0a}\u{3c}\u{2f}\u{74}\u{72}\u{3e}\u{0d}\u{0a}\u{20}\u{3c}\u{2f}\u{74}\u{61}\u{62}\u{6c}\u{65}\u{3e}\u{0d}\u{0a}\u{20}"))
(assert (= x_69 (str.++ x_65 literal_68)))
(assert (= x_70 (str.++ x_67 sigmaStar_66)))
(assert (= x_71 (str.++ x_70 x_69)))
(assert (str.in_re x_71 (re.++ (re.* re.allchar) (re.++ (str.to_re "\u{5c}\u{3c}\u{53}\u{43}\u{52}\u{49}\u{50}\u{54}") (re.* re.allchar)))))
(check-sat)
(exit)
